Data path: /scratch/opt/lxu/CFLG/benchmarks/random_B
Instance: r_25_0.3_98.txt
Result path: /scratch/opt/lxu/CFLG/results/random_B
Solver: Gurobi
Time limit: 7200
Formulation: LEFP
Cover: Large
julia --project=. src/main.jl /scratch/opt/lxu/CFLG/benchmarks/random_B r_25_0.3_98.txt /scratch/opt/lxu/CFLG/results/random_B Gurobi 7200 LEFP Large
The latest version of Julia in the `release` channel is 1.11.5+0.x64.linux.gnu. You currently have `1.11.4+0.x64.linux.gnu` installed. Run:

  juliaup update

in your terminal shell to install Julia 1.11.5+0.x64.linux.gnu and update the `release` channel to that version.
/scratch/opt/lxu/CFLG/benchmarks/random_B Gurobi 7200.0 /scratch/opt/lxu/CFLG/results/random_B r_25_0.3_98.txt LEFP Large
/scratch/opt/lxu/CFLG/benchmarks/random_B/r_25_0.3_98.txt

 read graph
data loaded

problem_graph/original graph: node: 25/25 edge: 98/98 dlt: 1.149474872932666 break_avg_len: 0.574737436466333 break_max_len: 0.9903705037781224Set parameter TokenServer to value "solice01.zib.de"
Set parameter Threads to value 1
Set parameter OutputFlag to value 1
Gurobi Optimizer version 12.0.1 build v12.0.1rc0 (linux64 - "Debian GNU/Linux 12 (bookworm)")

CPU model: Intel(R) Xeon(R) Gold 5122 CPU @ 3.60GHz, instruction set [SSE2|AVX|AVX2|AVX512]
Thread count: 8 physical cores, 16 logical processors, using up to 1 threads

Non-default parameters:
Threads  1

Optimize a model with 123 rows, 294 columns and 490 nonzeros
Model fingerprint: 0x6a502b49
Coefficient statistics:
  Matrix range     [1e+00, 1e+00]
  Objective range  [1e+00, 1e+00]
  Bounds range     [1e+00, 1e+00]
  RHS range        [0e+00, 0e+00]
Presolve removed 123 rows and 294 columns
Presolve time: 0.00s
Presolve: All rows and columns removed
Iteration    Objective       Primal Inf.    Dual Inf.      Time
       0   -0.0000000e+00   0.000000e+00   0.000000e+00      0s

Solved in 0 iterations and 0.00 seconds (0.00 work units)
Optimal objective -0.000000000e+00

User-callback calls 35, time in user-callback 0.01 sec
elapsed CPU time: 1.254614 seconds
Set parameter TokenServer to value "solice01.zib.de"
Set parameter Threads to value 1
Set parameter OutputFlag to value 1
Set parameter MIPGap to value 0.0001
Set parameter MIPGapAbs to value 0.999998
Set parameter TimeLimit to value 7198.745386

 more cuts: false 1.149474872932666 false
is_attach:falseformulation:LEFP0 98 0

 model loaded

Gurobi Optimizer version 12.0.1 build v12.0.1rc0 (linux64 - "Debian GNU/Linux 12 (bookworm)")

CPU model: Intel(R) Xeon(R) Gold 5122 CPU @ 3.60GHz, instruction set [SSE2|AVX|AVX2|AVX512]
Thread count: 8 physical cores, 16 logical processors, using up to 1 threads

Non-default parameters:
TimeLimit  7198.745386
MIPGapAbs  0.999998
Threads  1

Optimize a model with 9622 rows, 4771 columns and 28497 nonzeros
Model fingerprint: 0xba45a3de
Variable types: 221 continuous, 4550 integer (4550 binary)
Coefficient statistics:
  Matrix range     [1e-06, 2e+00]
  Objective range  [1e+00, 1e+00]
  Bounds range     [3e-01, 1e+00]
  RHS range        [3e-01, 2e+00]
Found heuristic solution: objective 24.0000000
Presolve removed 2082 rows and 148 columns
Presolve time: 0.10s
Presolved: 7540 rows, 4623 columns, 26207 nonzeros
Variable types: 123 continuous, 4500 integer (4500 binary)

Root relaxation: objective 4.723861e-01, 2897 iterations, 0.10 seconds (0.20 work units)

    Nodes    |    Current Node    |     Objective Bounds      |     Work
 Expl Unexpl |  Obj  Depth IntInf | Incumbent    BestBd   Gap | It/Node Time

     0     0    0.47239    0  403   24.00000    0.47239  98.0%     -    0s
H    0     0                      11.0000000    0.47239  95.7%     -    0s
H    0     0                       6.0000000    0.47239  92.1%     -    0s
H    0     0                       5.0000000    0.47239  90.6%     -    0s
H    0     0                       4.0000000    0.47239  88.2%     -    0s
     0     0    0.81117    0  361    4.00000    0.81117  79.7%     -    1s
H    0     0                       3.0000000    0.81226  72.9%     -    1s
     0     0    0.85270    0  414    3.00000    0.85270  71.6%     -    2s
     0     0    0.85668    0  418    3.00000    0.85668  71.4%     -    2s
     0     0    0.85668    0  418    3.00000    0.85668  71.4%     -    2s
     0     0    0.91036    0  454    3.00000    0.91036  69.7%     -    3s
     0     0    0.91349    0  476    3.00000    0.91349  69.6%     -    3s
     0     0    0.91695    0  500    3.00000    0.91695  69.4%     -    3s
     0     0    0.91720    0  538    3.00000    0.91720  69.4%     -    3s
     0     0    0.93035    0  476    3.00000    0.93035  69.0%     -    3s
     0     0    0.94945    0  526    3.00000    0.94945  68.4%     -    3s
     0     0    0.95154    0  476    3.00000    0.95154  68.3%     -    3s
     0     0    0.95189    0  498    3.00000    0.95189  68.3%     -    3s
     0     0    0.95198    0  553    3.00000    0.95198  68.3%     -    3s
     0     0    0.95576    0  553    3.00000    0.95576  68.1%     -    3s
     0     0    0.95786    0  626    3.00000    0.95786  68.1%     -    3s
     0     0    0.95791    0  626    3.00000    0.95791  68.1%     -    3s
     0     0    0.95826    0  627    3.00000    0.95826  68.1%     -    3s
     0     0    0.95886    0  628    3.00000    0.95886  68.0%     -    4s
     0     0    0.95886    0  628    3.00000    0.95886  68.0%     -    4s
     0     0    0.95913    0  441    3.00000    0.95913  68.0%     -    4s
     0     0    0.95915    0  556    3.00000    0.95915  68.0%     -    4s
     0     0    0.95915    0  536    3.00000    0.95915  68.0%     -    5s
     0     0    0.95915    0  530    3.00000    0.95915  68.0%     -    5s
     0     2    1.00000    0  530    3.00000    1.00000  66.7%     -    5s
   644   439    2.00000   42  530    3.00000    1.01492  66.2%  76.9   16s
   649   442    2.00000   33  317    3.00000    1.01492  66.2%  76.3   20s
   657   448    2.00000   23  798    3.00000    1.01492  66.2%  75.4   25s
   665   453    2.00000   17  700    3.00000    1.02011  66.0%  74.5   30s
   671   457    1.65000   57  784    3.00000    1.02269  65.9%  73.8   35s
   684   467    1.02810   19  492    3.00000    1.02810  65.7%   175   40s
H  755   417                       2.0000000    1.25000  37.5%   206   43s

Cutting planes:
  Cover: 3
  MIR: 6
  Flow cover: 33
  GUB cover: 23
  Zero half: 10
  RLT: 5
  Relax-and-lift: 2

Explored 756 nodes (178322 simplex iterations) in 43.67 seconds (43.37 work units)
Thread count was 1 (of 16 available processors)

Solution count 10: 2 3 3 ... 24

Optimal solution found (tolerance 1.00e-04)
Best objective 2.000000000000e+00, best bound 2.000000000000e+00, gap 0.0000%

User-callback calls 12566, time in user-callback 0.01 sec

 sepatime0 0 0
2.0Stat(MathOptInterface.OPTIMAL, 2.0, 2.0, 0.0, 0.0, 1.254614, 43.66989588737488, 756, Main.CFLG.LEFP, "", #undef)
